p cnf 12 50 
-9 -8 -11 0
1 11 -3 0
8 7 -12 0
1 11 4 0
-1 11 9 0
-1 -2 -4 0
9 8 4 0
9 1 -2 0
-2 10 -6 0
6 -11 -10 0
-11 4 -1 0
-8 -10 2 0
7 1 2 0
6 -11 8 0
-3 9 7 0
-12 -4 -7 0
-3 5 8 0
-4 9 1 0
-1 9 -8 0
11 1 -4 0
-5 -6 7 0
-5 8 3 0
12 -6 -1 0
-12 -6 7 0
4 9 7 0
8 6 -3 0
10 6 -7 0
5 9 12 0
-1 -11 6 0
12 -10 -8 0
7 -4 6 0
9 -11 -12 0
1 -11 3 0
-2 5 6 0
9 10 -2 0
7 11 -5 0
-9 4 -8 0
-8 2 -12 0
-10 -1 4 0
-9 11 7 0
-7 -4 -12 0
-10 8 3 0
9 -10 -12 0
-10 -6 5 0
10 3 -9 0
3 5 -12 0
5 1 -6 0
3 11 4 0
6 9 5 0
10 1 -12 0
